
630.0
630.0
630.0
630.0
630.0
630.0
630.0
630.0
630.0
630.0
630.0
630.0
630.0
630.0
630.0
630.0
630.0
630.0
1230.0
630.0
630.0
630.0
630.0
630.0
630.0
630.0
630.0
630.0
630.0
630.0
1140.0
630.0
630.0
630.0
630.0
630.0
630.0
630.0
630.0
630.0
630.0
630.0
630.0
630.0
630.0
630.0
630.0
630.0
630.0
630.0